param n := 120;
param c := 450
param : V : p w :=
   0	  52	  42
   1	  79	  69
   2	  77	  67
   3	  67	  57
   4	 103	  93
   5	 100	  90
   6	  48	  38
   7	  46	  36
   8	  55	  45
   9	  52	  42
  10	  43	  33
  11	  89	  79
  12	  37	  27
  13	  67	  57
  14	  54	  44
  15	  94	  84
  16	  96	  86
  17	 102	  92
  18	  56	  46
  19	  48	  38
  20	  95	  85
  21	  43	  33
  22	  92	  82
  23	  83	  73
  24	  59	  49
  25	  80	  70
  26	  69	  59
  27	  33	  23
  28	  67	  57
  29	  82	  72
  30	  84	  74
  31	  79	  69
  32	  43	  33
  33	  52	  42
  34	  38	  28
  35	  56	  46
  36	  40	  30
  37	  74	  64
  38	  39	  29
  39	  84	  74
  40	  51	  41
  41	  59	  49
  42	  65	  55
  43	 108	  98
  44	  90	  80
  45	  42	  32
  46	  35	  25
  47	  48	  38
  48	  92	  82
  49	  40	  30
  50	  45	  35
  51	  49	  39
  52	  67	  57
  53	  94	  84
  54	  72	  62
  55	  60	  50
  56	  65	  55
  57	  37	  27
  58	  40	  30
  59	  46	  36
  60	  30	  20
  61	  88	  78
  62	  57	  47
  63	  36	  26
  64	  55	  45
  65	  51	  41
  66	  68	  58
  67	 108	  98
  68	 101	  91
  69	 106	  96
  70	  83	  73
  71	  94	  84
  72	  47	  37
  73	 103	  93
  74	 101	  91
  75	  53	  43
  76	  83	  73
  77	  95	  85
  78	  91	  81
  79	  89	  79
  80	  81	  71
  81	  90	  80
  82	  86	  76
  83	  93	  83
  84	  51	  41
  85	  88	  78
  86	  80	  70
  87	  33	  23
  88	  52	  42
  89	  97	  87
  90	  53	  43
  91	  94	  84
  92	  70	  60
  93	  65	  55
  94	  59	  49
  95	  88	  78
  96	  83	  73
  97	  72	  62
  98	  46	  36
  99	  54	  44
 100	 104	  94
 101	  79	  69
 102	  42	  32
 103	 106	  96
 104	  80	  70
 105	  94	  84
 106	  68	  58
 107	  88	  78
 108	  35	  25
 109	  90	  80
 110	  68	  58
 111	  76	  66
 112	  93	  83
 113	  34	  24
 114	 108	  98
 115	  70	  60
 116	  52	  42
 117	  53	  43
 118	  53	  43
 119	  49	  39
;

set E :=
   0	   1
   0	   5
   0	   7
   0	   8
   0	   9
   0	  10
   0	  12
   0	  15
   0	  16
   0	  18
   0	  21
   0	  22
   0	  26
   0	  27
   0	  33
   0	  34
   0	  35
   0	  40
   0	  44
   0	  45
   0	  46
   0	  48
   0	  50
   0	  54
   0	  55
   0	  56
   0	  58
   0	  61
   0	  63
   0	  64
   0	  67
   0	  68
   0	  70
   0	  71
   0	  72
   0	  73
   0	  74
   0	  75
   0	  79
   0	  81
   0	  84
   0	  90
   0	  92
   0	  95
   0	  99
   0	 100
   0	 101
   0	 104
   0	 105
   0	 107
   0	 109
   0	 110
   0	 112
   0	 116
   0	 118
   1	   4
   1	   6
   1	   7
   1	   9
   1	  14
   1	  17
   1	  20
   1	  21
   1	  24
   1	  25
   1	  28
   1	  36
   1	  37
   1	  38
   1	  39
   1	  41
   1	  43
   1	  47
   1	  49
   1	  51
   1	  52
   1	  58
   1	  60
   1	  63
   1	  65
   1	  66
   1	  69
   1	  71
   1	  73
   1	  76
   1	  78
   1	  80
   1	  82
   1	  83
   1	  84
   1	  87
   1	  89
   1	  91
   1	  92
   1	  93
   1	  96
   1	  99
   1	 101
   1	 105
   1	 106
   1	 108
   1	 109
   1	 110
   1	 111
   1	 113
   1	 116
   1	 118
   1	 119
   2	   4
   2	   6
   2	   7
   2	   9
   2	  10
   2	  11
   2	  13
   2	  14
   2	  17
   2	  18
   2	  19
   2	  21
   2	  23
   2	  27
   2	  29
   2	  31
   2	  32
   2	  38
   2	  39
   2	  40
   2	  46
   2	  48
   2	  50
   2	  51
   2	  52
   2	  53
   2	  54
   2	  56
   2	  57
   2	  58
   2	  59
   2	  63
   2	  64
   2	  65
   2	  67
   2	  71
   2	  72
   2	  73
   2	  75
   2	  77
   2	  81
   2	  83
   2	  84
   2	  87
   2	  88
   2	  89
   2	  90
   2	  92
   2	  97
   2	  99
   2	 101
   2	 102
   2	 103
   2	 104
   2	 105
   2	 106
   2	 110
   2	 111
   2	 112
   2	 113
   2	 114
   2	 116
   2	 117
   2	 119
   3	   4
   3	   6
   3	   7
   3	   8
   3	  10
   3	  11
   3	  12
   3	  17
   3	  18
   3	  19
   3	  20
   3	  21
   3	  22
   3	  23
   3	  24
   3	  25
   3	  27
   3	  28
   3	  31
   3	  37
   3	  39
   3	  40
   3	  41
   3	  42
   3	  43
   3	  44
   3	  45
   3	  47
   3	  50
   3	  53
   3	  56
   3	  59
   3	  61
   3	  64
   3	  66
   3	  68
   3	  70
   3	  71
   3	  72
   3	  74
   3	  76
   3	  77
   3	  78
   3	  79
   3	  80
   3	  81
   3	  82
   3	  84
   3	  87
   3	  89
   3	  90
   3	  91
   3	  93
   3	  95
   3	  99
   3	 100
   3	 101
   3	 102
   3	 103
   3	 104
   3	 105
   3	 109
   3	 111
   3	 116
   3	 117
   3	 118
   4	   5
   4	   7
   4	   9
   4	  11
   4	  12
   4	  14
   4	  16
   4	  18
   4	  19
   4	  20
   4	  22
   4	  24
   4	  27
   4	  28
   4	  30
   4	  33
   4	  35
   4	  36
   4	  38
   4	  40
   4	  43
   4	  46
   4	  49
   4	  51
   4	  52
   4	  54
   4	  60
   4	  61
   4	  62
   4	  64
   4	  65
   4	  66
   4	  68
   4	  70
   4	  73
   4	  75
   4	  76
   4	  77
   4	  78
   4	  79
   4	  80
   4	  81
   4	  84
   4	  85
   4	  86
   4	  87
   4	  89
   4	  96
   4	 100
   4	 101
   4	 103
   4	 104
   4	 105
   4	 106
   4	 109
   4	 110
   4	 111
   4	 113
   4	 115
   4	 116
   4	 118
   5	   7
   5	  10
   5	  14
   5	  15
   5	  17
   5	  19
   5	  20
   5	  22
   5	  24
   5	  25
   5	  26
   5	  30
   5	  31
   5	  32
   5	  36
   5	  38
   5	  43
   5	  44
   5	  45
   5	  48
   5	  49
   5	  51
   5	  52
   5	  54
   5	  55
   5	  56
   5	  57
   5	  60
   5	  63
   5	  69
   5	  70
   5	  71
   5	  72
   5	  75
   5	  79
   5	  82
   5	  84
   5	  85
   5	  86
   5	  93
   5	  96
   5	  97
   5	  99
   5	 101
   5	 104
   5	 106
   5	 107
   5	 108
   5	 109
   5	 110
   5	 111
   5	 113
   5	 114
   5	 115
   5	 116
   5	 117
   5	 118
   6	   7
   6	  10
   6	  12
   6	  13
   6	  14
   6	  15
   6	  16
   6	  20
   6	  21
   6	  22
   6	  25
   6	  28
   6	  29
   6	  30
   6	  31
   6	  33
   6	  39
   6	  40
   6	  43
   6	  46
   6	  48
   6	  51
   6	  53
   6	  54
   6	  58
   6	  61
   6	  64
   6	  65
   6	  67
   6	  69
   6	  72
   6	  74
   6	  75
   6	  77
   6	  79
   6	  82
   6	  84
   6	  85
   6	  87
   6	  89
   6	  91
   6	  93
   6	  96
   6	 101
   6	 103
   6	 105
   6	 108
   6	 109
   6	 110
   6	 112
   6	 114
   6	 115
   6	 117
   6	 118
   7	   8
   7	  11
   7	  12
   7	  13
   7	  14
   7	  16
   7	  19
   7	  20
   7	  22
   7	  25
   7	  29
   7	  32
   7	  34
   7	  35
   7	  37
   7	  38
   7	  40
   7	  41
   7	  42
   7	  46
   7	  47
   7	  51
   7	  52
   7	  53
   7	  58
   7	  60
   7	  61
   7	  63
   7	  66
   7	  67
   7	  69
   7	  73
   7	  75
   7	  78
   7	  82
   7	  85
   7	  87
   7	  88
   7	  90
   7	  95
   7	 101
   7	 102
   7	 103
   7	 104
   7	 105
   7	 108
   7	 109
   7	 111
   7	 115
   7	 117
   7	 118
   7	 119
   8	   9
   8	  10
   8	  12
   8	  14
   8	  15
   8	  17
   8	  18
   8	  19
   8	  20
   8	  21
   8	  22
   8	  23
   8	  24
   8	  26
   8	  27
   8	  30
   8	  31
   8	  33
   8	  34
   8	  35
   8	  36
   8	  37
   8	  38
   8	  39
   8	  40
   8	  41
   8	  43
   8	  45
   8	  46
   8	  47
   8	  48
   8	  51
   8	  53
   8	  54
   8	  55
   8	  60
   8	  61
   8	  63
   8	  64
   8	  65
   8	  68
   8	  69
   8	  70
   8	  72
   8	  73
   8	  74
   8	  75
   8	  76
   8	  77
   8	  81
   8	  82
   8	  84
   8	  85
   8	  86
   8	  89
   8	  90
   8	  91
   8	  93
   8	  99
   8	 100
   8	 103
   8	 106
   8	 110
   8	 111
   8	 112
   8	 115
   8	 119
   9	  13
   9	  14
   9	  17
   9	  18
   9	  20
   9	  21
   9	  22
   9	  25
   9	  27
   9	  28
   9	  32
   9	  33
   9	  35
   9	  36
   9	  37
   9	  38
   9	  41
   9	  42
   9	  45
   9	  46
   9	  47
   9	  48
   9	  50
   9	  51
   9	  52
   9	  53
   9	  54
   9	  56
   9	  59
   9	  61
   9	  62
   9	  63
   9	  65
   9	  66
   9	  68
   9	  70
   9	  72
   9	  73
   9	  74
   9	  75
   9	  76
   9	  78
   9	  79
   9	  81
   9	  83
   9	  84
   9	  86
   9	  89
   9	  91
   9	  94
   9	  95
   9	  96
   9	  97
   9	 100
   9	 105
   9	 108
   9	 109
   9	 110
   9	 111
   9	 114
   9	 117
   9	 118
  10	  16
  10	  17
  10	  18
  10	  19
  10	  21
  10	  22
  10	  24
  10	  25
  10	  26
  10	  28
  10	  29
  10	  31
  10	  32
  10	  33
  10	  38
  10	  39
  10	  42
  10	  46
  10	  47
  10	  48
  10	  49
  10	  50
  10	  56
  10	  57
  10	  60
  10	  62
  10	  63
  10	  64
  10	  65
  10	  66
  10	  71
  10	  72
  10	  73
  10	  74
  10	  75
  10	  76
  10	  78
  10	  79
  10	  83
  10	  84
  10	  85
  10	  86
  10	  87
  10	  88
  10	  89
  10	  91
  10	  93
  10	  94
  10	  95
  10	  98
  10	 100
  10	 101
  10	 103
  10	 105
  10	 106
  10	 109
  10	 110
  10	 118
  11	  15
  11	  18
  11	  19
  11	  20
  11	  21
  11	  23
  11	  26
  11	  29
  11	  34
  11	  35
  11	  37
  11	  38
  11	  39
  11	  43
  11	  44
  11	  46
  11	  49
  11	  50
  11	  51
  11	  52
  11	  54
  11	  55
  11	  59
  11	  62
  11	  63
  11	  64
  11	  69
  11	  71
  11	  72
  11	  74
  11	  75
  11	  77
  11	  79
  11	  81
  11	  82
  11	  83
  11	  85
  11	  88
  11	  92
  11	  95
  11	  96
  11	  97
  11	  98
  11	  99
  11	 102
  11	 104
  11	 105
  11	 109
  11	 110
  11	 113
  11	 114
  11	 115
  11	 116
  11	 117
  11	 119
  12	  15
  12	  18
  12	  20
  12	  21
  12	  23
  12	  26
  12	  28
  12	  29
  12	  30
  12	  31
  12	  32
  12	  33
  12	  34
  12	  39
  12	  41
  12	  44
  12	  45
  12	  47
  12	  48
  12	  49
  12	  51
  12	  52
  12	  53
  12	  54
  12	  60
  12	  63
  12	  65
  12	  67
  12	  68
  12	  71
  12	  72
  12	  75
  12	  76
  12	  77
  12	  79
  12	  84
  12	  87
  12	  89
  12	  90
  12	  92
  12	  93
  12	  94
  12	  98
  12	  99
  12	 101
  12	 106
  12	 107
  12	 108
  12	 109
  12	 110
  12	 111
  12	 112
  12	 114
  12	 115
  12	 118
  13	  17
  13	  20
  13	  21
  13	  22
  13	  24
  13	  26
  13	  27
  13	  29
  13	  30
  13	  32
  13	  35
  13	  36
  13	  38
  13	  39
  13	  40
  13	  41
  13	  44
  13	  46
  13	  47
  13	  48
  13	  50
  13	  52
  13	  53
  13	  54
  13	  59
  13	  64
  13	  65
  13	  71
  13	  75
  13	  76
  13	  77
  13	  79
  13	  80
  13	  84
  13	  87
  13	  88
  13	  89
  13	  91
  13	  92
  13	  94
  13	 103
  13	 104
  13	 107
  13	 108
  13	 111
  13	 113
  13	 117
  14	  18
  14	  19
  14	  23
  14	  25
  14	  29
  14	  30
  14	  31
  14	  33
  14	  36
  14	  37
  14	  38
  14	  39
  14	  41
  14	  46
  14	  47
  14	  49
  14	  50
  14	  52
  14	  53
  14	  54
  14	  55
  14	  56
  14	  59
  14	  60
  14	  64
  14	  65
  14	  66
  14	  69
  14	  71
  14	  72
  14	  73
  14	  74
  14	  75
  14	  79
  14	  80
  14	  81
  14	  84
  14	  85
  14	  86
  14	  87
  14	  88
  14	  90
  14	  92
  14	  94
  14	  96
  14	  97
  14	  98
  14	  99
  14	 101
  14	 103
  14	 104
  14	 105
  14	 109
  14	 113
  14	 114
  14	 115
  14	 117
  15	  17
  15	  19
  15	  20
  15	  22
  15	  24
  15	  27
  15	  28
  15	  30
  15	  31
  15	  36
  15	  39
  15	  40
  15	  41
  15	  42
  15	  46
  15	  47
  15	  48
  15	  49
  15	  51
  15	  54
  15	  56
  15	  57
  15	  60
  15	  64
  15	  69
  15	  70
  15	  71
  15	  72
  15	  73
  15	  75
  15	  76
  15	  78
  15	  80
  15	  81
  15	  82
  15	  84
  15	  85
  15	  86
  15	  90
  15	  91
  15	  96
  15	  97
  15	  98
  15	 102
  15	 103
  15	 106
  15	 107
  15	 108
  15	 113
  15	 115
  15	 116
  15	 117
  15	 118
  16	  17
  16	  19
  16	  22
  16	  23
  16	  24
  16	  26
  16	  28
  16	  30
  16	  31
  16	  32
  16	  41
  16	  43
  16	  46
  16	  47
  16	  48
  16	  53
  16	  55
  16	  56
  16	  58
  16	  59
  16	  60
  16	  62
  16	  63
  16	  66
  16	  67
  16	  68
  16	  69
  16	  72
  16	  73
  16	  76
  16	  79
  16	  80
  16	  86
  16	  91
  16	  92
  16	  93
  16	  94
  16	  97
  16	  98
  16	 100
  16	 101
  16	 102
  16	 103
  16	 105
  16	 106
  16	 108
  16	 109
  16	 110
  16	 114
  16	 118
  17	  18
  17	  19
  17	  20
  17	  21
  17	  23
  17	  26
  17	  28
  17	  29
  17	  32
  17	  33
  17	  34
  17	  36
  17	  37
  17	  38
  17	  39
  17	  40
  17	  41
  17	  42
  17	  43
  17	  44
  17	  48
  17	  50
  17	  51
  17	  52
  17	  54
  17	  55
  17	  57
  17	  59
  17	  61
  17	  63
  17	  65
  17	  66
  17	  67
  17	  68
  17	  69
  17	  70
  17	  71
  17	  72
  17	  76
  17	  77
  17	  78
  17	  80
  17	  81
  17	  82
  17	  87
  17	  88
  17	  90
  17	  91
  17	  93
  17	  94
  17	 103
  17	 109
  17	 111
  17	 112
  17	 113
  17	 115
  17	 116
  17	 119
  18	  22
  18	  23
  18	  24
  18	  26
  18	  27
  18	  28
  18	  29
  18	  31
  18	  35
  18	  38
  18	  41
  18	  42
  18	  43
  18	  45
  18	  49
  18	  52
  18	  53
  18	  54
  18	  55
  18	  56
  18	  57
  18	  58
  18	  59
  18	  64
  18	  66
  18	  71
  18	  72
  18	  73
  18	  76
  18	  79
  18	  80
  18	  81
  18	  82
  18	  84
  18	  85
  18	  88
  18	  90
  18	  92
  18	  93
  18	  94
  18	  96
  18	  97
  18	  98
  18	  99
  18	 101
  18	 104
  18	 105
  18	 106
  18	 107
  18	 108
  18	 109
  18	 110
  18	 116
  18	 117
  18	 119
  19	  20
  19	  21
  19	  23
  19	  24
  19	  25
  19	  26
  19	  28
  19	  29
  19	  30
  19	  32
  19	  33
  19	  36
  19	  45
  19	  46
  19	  48
  19	  49
  19	  51
  19	  56
  19	  58
  19	  61
  19	  65
  19	  66
  19	  67
  19	  69
  19	  70
  19	  71
  19	  72
  19	  74
  19	  75
  19	  77
  19	  80
  19	  81
  19	  82
  19	  83
  19	  88
  19	  89
  19	  90
  19	  93
  19	  94
  19	  96
  19	  98
  19	 100
  19	 101
  19	 104
  19	 106
  19	 108
  19	 110
  19	 111
  19	 113
  19	 116
  19	 117
  20	  22
  20	  24
  20	  26
  20	  28
  20	  32
  20	  34
  20	  36
  20	  37
  20	  39
  20	  41
  20	  43
  20	  44
  20	  46
  20	  48
  20	  51
  20	  52
  20	  54
  20	  55
  20	  57
  20	  58
  20	  61
  20	  62
  20	  65
  20	  70
  20	  72
  20	  73
  20	  74
  20	  75
  20	  76
  20	  83
  20	  84
  20	  85
  20	  89
  20	  90
  20	  91
  20	  93
  20	  97
  20	 100
  20	 102
  20	 108
  20	 111
  20	 115
  20	 117
  21	  22
  21	  23
  21	  24
  21	  25
  21	  26
  21	  28
  21	  29
  21	  32
  21	  34
  21	  35
  21	  36
  21	  37
  21	  38
  21	  39
  21	  43
  21	  44
  21	  46
  21	  48
  21	  49
  21	  53
  21	  54
  21	  56
  21	  57
  21	  58
  21	  61
  21	  63
  21	  67
  21	  68
  21	  71
  21	  75
  21	  78
  21	  82
  21	  83
  21	  84
  21	  85
  21	  92
  21	  94
  21	  95
  21	  96
  21	  97
  21	 100
  21	 103
  21	 104
  21	 106
  21	 107
  21	 108
  21	 109
  21	 111
  21	 115
  21	 116
  21	 117
  22	  23
  22	  24
  22	  28
  22	  29
  22	  30
  22	  31
  22	  33
  22	  34
  22	  35
  22	  38
  22	  39
  22	  48
  22	  49
  22	  52
  22	  53
  22	  54
  22	  56
  22	  59
  22	  61
  22	  64
  22	  65
  22	  66
  22	  67
  22	  68
  22	  69
  22	  70
  22	  72
  22	  74
  22	  75
  22	  76
  22	  78
  22	  88
  22	  89
  22	  90
  22	  92
  22	  94
  22	  95
  22	  96
  22	  97
  22	  99
  22	 100
  22	 101
  22	 102
  22	 107
  22	 108
  22	 109
  22	 112
  22	 114
  22	 116
  22	 117
  23	  24
  23	  26
  23	  27
  23	  31
  23	  32
  23	  33
  23	  37
  23	  38
  23	  39
  23	  40
  23	  43
  23	  44
  23	  46
  23	  47
  23	  48
  23	  50
  23	  51
  23	  52
  23	  53
  23	  54
  23	  56
  23	  57
  23	  59
  23	  61
  23	  65
  23	  66
  23	  68
  23	  71
  23	  77
  23	  79
  23	  80
  23	  81
  23	  82
  23	  83
  23	  84
  23	  88
  23	  91
  23	  92
  23	  93
  23	  97
  23	 100
  23	 101
  23	 106
  23	 107
  23	 108
  23	 109
  23	 110
  23	 114
  23	 115
  23	 116
  23	 117
  23	 118
  23	 119
  24	  26
  24	  28
  24	  29
  24	  31
  24	  33
  24	  35
  24	  40
  24	  42
  24	  45
  24	  47
  24	  48
  24	  49
  24	  50
  24	  51
  24	  55
  24	  57
  24	  58
  24	  59
  24	  62
  24	  63
  24	  66
  24	  67
  24	  69
  24	  71
  24	  72
  24	  73
  24	  74
  24	  75
  24	  79
  24	  81
  24	  83
  24	  85
  24	  87
  24	  88
  24	  89
  24	  90
  24	  92
  24	  93
  24	  94
  24	  97
  24	 100
  24	 104
  24	 107
  24	 108
  24	 109
  24	 111
  24	 113
  24	 114
  24	 117
  24	 119
  25	  28
  25	  30
  25	  31
  25	  32
  25	  33
  25	  37
  25	  38
  25	  42
  25	  43
  25	  44
  25	  48
  25	  49
  25	  51
  25	  52
  25	  54
  25	  61
  25	  64
  25	  66
  25	  67
  25	  68
  25	  70
  25	  71
  25	  73
  25	  74
  25	  75
  25	  80
  25	  81
  25	  84
  25	  86
  25	  89
  25	  94
  25	  95
  25	  96
  25	  97
  25	  98
  25	 104
  25	 108
  25	 109
  25	 110
  25	 111
  25	 112
  25	 114
  25	 115
  25	 118
  25	 119
  26	  27
  26	  30
  26	  31
  26	  36
  26	  37
  26	  38
  26	  39
  26	  41
  26	  42
  26	  43
  26	  45
  26	  46
  26	  47
  26	  48
  26	  49
  26	  50
  26	  51
  26	  53
  26	  57
  26	  60
  26	  61
  26	  65
  26	  66
  26	  67
  26	  71
  26	  73
  26	  74
  26	  77
  26	  81
  26	  83
  26	  84
  26	  87
  26	  88
  26	  89
  26	  90
  26	  93
  26	  96
  26	  99
  26	 101
  26	 102
  26	 103
  26	 106
  26	 108
  26	 110
  26	 111
  26	 115
  26	 116
  26	 117
  27	  29
  27	  30
  27	  34
  27	  37
  27	  40
  27	  43
  27	  46
  27	  47
  27	  49
  27	  53
  27	  61
  27	  62
  27	  64
  27	  66
  27	  67
  27	  69
  27	  72
  27	  73
  27	  74
  27	  75
  27	  76
  27	  77
  27	  79
  27	  80
  27	  83
  27	  84
  27	  86
  27	  87
  27	  88
  27	  92
  27	  94
  27	  98
  27	 100
  27	 101
  27	 103
  27	 104
  27	 106
  27	 108
  27	 110
  27	 112
  27	 113
  27	 115
  27	 119
  28	  29
  28	  30
  28	  31
  28	  32
  28	  33
  28	  35
  28	  37
  28	  45
  28	  49
  28	  52
  28	  53
  28	  55
  28	  56
  28	  57
  28	  58
  28	  59
  28	  61
  28	  62
  28	  64
  28	  65
  28	  66
  28	  67
  28	  68
  28	  70
  28	  71
  28	  74
  28	  76
  28	  87
  28	  89
  28	  90
  28	  92
  28	  93
  28	  94
  28	  95
  28	  97
  28	  98
  28	 100
  28	 101
  28	 103
  28	 104
  28	 105
  28	 106
  28	 110
  28	 112
  28	 113
  28	 114
  28	 119
  29	  30
  29	  31
  29	  35
  29	  39
  29	  40
  29	  41
  29	  43
  29	  44
  29	  46
  29	  47
  29	  49
  29	  51
  29	  53
  29	  55
  29	  57
  29	  58
  29	  59
  29	  61
  29	  66
  29	  67
  29	  69
  29	  73
  29	  76
  29	  80
  29	  81
  29	  86
  29	  87
  29	  88
  29	  91
  29	  92
  29	  93
  29	  96
  29	  99
  29	 101
  29	 103
  29	 105
  29	 106
  29	 109
  29	 110
  29	 113
  29	 114
  29	 115
  29	 118
  30	  31
  30	  35
  30	  36
  30	  40
  30	  43
  30	  44
  30	  45
  30	  46
  30	  47
  30	  48
  30	  49
  30	  50
  30	  53
  30	  54
  30	  55
  30	  56
  30	  58
  30	  60
  30	  61
  30	  65
  30	  66
  30	  67
  30	  68
  30	  69
  30	  73
  30	  77
  30	  78
  30	  80
  30	  81
  30	  82
  30	  83
  30	  85
  30	  86
  30	  87
  30	  88
  30	  89
  30	  90
  30	  94
  30	  99
  30	 102
  30	 106
  30	 108
  30	 109
  30	 110
  30	 113
  30	 114
  30	 116
  30	 118
  31	  32
  31	  34
  31	  36
  31	  37
  31	  39
  31	  41
  31	  42
  31	  44
  31	  45
  31	  49
  31	  50
  31	  54
  31	  55
  31	  56
  31	  57
  31	  58
  31	  59
  31	  60
  31	  62
  31	  63
  31	  64
  31	  68
  31	  69
  31	  70
  31	  72
  31	  73
  31	  80
  31	  83
  31	  84
  31	  85
  31	  86
  31	  88
  31	  90
  31	  91
  31	  92
  31	  95
  31	  96
  31	  98
  31	  99
  31	 101
  31	 102
  31	 103
  31	 107
  31	 112
  31	 114
  31	 116
  31	 117
  31	 118
  31	 119
  32	  34
  32	  35
  32	  36
  32	  37
  32	  40
  32	  41
  32	  42
  32	  43
  32	  44
  32	  45
  32	  49
  32	  52
  32	  57
  32	  58
  32	  59
  32	  62
  32	  63
  32	  66
  32	  67
  32	  71
  32	  72
  32	  74
  32	  75
  32	  76
  32	  77
  32	  78
  32	  81
  32	  82
  32	  83
  32	  84
  32	  85
  32	  86
  32	  89
  32	  91
  32	  93
  32	  94
  32	  95
  32	  96
  32	  98
  32	 100
  32	 103
  32	 106
  32	 107
  32	 108
  32	 109
  32	 115
  32	 116
  32	 117
  32	 119
  33	  35
  33	  36
  33	  37
  33	  39
  33	  41
  33	  42
  33	  43
  33	  45
  33	  47
  33	  50
  33	  51
  33	  54
  33	  59
  33	  60
  33	  61
  33	  62
  33	  64
  33	  65
  33	  66
  33	  67
  33	  68
  33	  69
  33	  70
  33	  71
  33	  74
  33	  75
  33	  77
  33	  78
  33	  79
  33	  82
  33	  84
  33	  85
  33	  86
  33	  88
  33	  92
  33	  99
  33	 101
  33	 102
  33	 103
  33	 104
  33	 108
  33	 109
  33	 110
  33	 111
  33	 114
  33	 115
  33	 116
  34	  35
  34	  37
  34	  38
  34	  39
  34	  42
  34	  43
  34	  44
  34	  46
  34	  48
  34	  49
  34	  50
  34	  51
  34	  52
  34	  58
  34	  59
  34	  60
  34	  61
  34	  62
  34	  64
  34	  65
  34	  66
  34	  67
  34	  68
  34	  70
  34	  71
  34	  72
  34	  73
  34	  76
  34	  77
  34	  78
  34	  82
  34	  85
  34	  87
  34	  89
  34	  94
  34	  95
  34	  97
  34	  98
  34	 102
  34	 103
  34	 106
  34	 110
  34	 111
  34	 112
  34	 114
  34	 115
  34	 118
  35	  36
  35	  39
  35	  40
  35	  43
  35	  44
  35	  47
  35	  51
  35	  52
  35	  59
  35	  61
  35	  62
  35	  63
  35	  67
  35	  68
  35	  69
  35	  71
  35	  75
  35	  76
  35	  77
  35	  79
  35	  80
  35	  82
  35	  84
  35	  87
  35	  91
  35	  92
  35	  93
  35	  95
  35	  97
  35	 102
  35	 103
  35	 104
  35	 106
  35	 108
  35	 110
  35	 111
  35	 112
  35	 114
  35	 117
  35	 118
  35	 119
  36	  37
  36	  38
  36	  39
  36	  40
  36	  41
  36	  42
  36	  45
  36	  55
  36	  56
  36	  59
  36	  62
  36	  64
  36	  65
  36	  66
  36	  69
  36	  70
  36	  71
  36	  73
  36	  74
  36	  75
  36	  77
  36	  78
  36	  80
  36	  81
  36	  84
  36	  87
  36	  90
  36	  92
  36	  94
  36	  95
  36	 100
  36	 101
  36	 102
  36	 105
  36	 106
  36	 108
  36	 109
  36	 110
  36	 112
  36	 115
  36	 116
  36	 117
  36	 118
  37	  38
  37	  39
  37	  42
  37	  44
  37	  45
  37	  46
  37	  47
  37	  48
  37	  52
  37	  54
  37	  55
  37	  56
  37	  57
  37	  58
  37	  59
  37	  60
  37	  64
  37	  66
  37	  67
  37	  68
  37	  69
  37	  70
  37	  72
  37	  73
  37	  74
  37	  75
  37	  79
  37	  81
  37	  82
  37	  84
  37	  85
  37	  86
  37	  87
  37	  88
  37	  90
  37	  91
  37	  92
  37	  94
  37	  95
  37	  99
  37	 103
  37	 105
  37	 106
  37	 112
  37	 113
  37	 114
  37	 118
  37	 119
  38	  39
  38	  40
  38	  44
  38	  45
  38	  46
  38	  52
  38	  53
  38	  56
  38	  58
  38	  60
  38	  61
  38	  62
  38	  64
  38	  71
  38	  73
  38	  75
  38	  80
  38	  81
  38	  82
  38	  83
  38	  84
  38	  86
  38	  92
  38	  93
  38	  94
  38	  96
  38	  97
  38	 100
  38	 101
  38	 102
  38	 103
  38	 105
  38	 106
  38	 110
  38	 112
  38	 113
  38	 115
  38	 118
  39	  40
  39	  42
  39	  48
  39	  50
  39	  52
  39	  55
  39	  58
  39	  62
  39	  65
  39	  67
  39	  69
  39	  70
  39	  71
  39	  72
  39	  75
  39	  79
  39	  80
  39	  81
  39	  83
  39	  84
  39	  85
  39	  88
  39	  89
  39	  90
  39	  96
  39	  97
  39	  99
  39	 100
  39	 103
  39	 107
  39	 108
  39	 109
  39	 110
  39	 111
  39	 113
  39	 114
  39	 118
  39	 119
  40	  47
  40	  50
  40	  54
  40	  55
  40	  57
  40	  59
  40	  61
  40	  63
  40	  66
  40	  67
  40	  69
  40	  74
  40	  76
  40	  78
  40	  79
  40	  81
  40	  85
  40	  86
  40	  91
  40	  93
  40	  94
  40	  95
  40	  98
  40	 100
  40	 105
  40	 107
  40	 108
  40	 110
  40	 111
  41	  44
  41	  45
  41	  46
  41	  47
  41	  49
  41	  54
  41	  56
  41	  57
  41	  61
  41	  62
  41	  67
  41	  69
  41	  70
  41	  71
  41	  74
  41	  76
  41	  79
  41	  80
  41	  81
  41	  82
  41	  85
  41	  88
  41	  95
  41	  96
  41	 100
  41	 102
  41	 105
  41	 108
  41	 109
  41	 110
  41	 112
  41	 113
  41	 114
  41	 116
  42	  44
  42	  45
  42	  47
  42	  48
  42	  50
  42	  55
  42	  56
  42	  58
  42	  60
  42	  61
  42	  62
  42	  64
  42	  65
  42	  71
  42	  72
  42	  73
  42	  76
  42	  82
  42	  83
  42	  84
  42	  88
  42	  89
  42	  92
  42	  93
  42	  94
  42	  98
  42	 114
  42	 116
  42	 119
  43	  44
  43	  45
  43	  49
  43	  51
  43	  52
  43	  53
  43	  54
  43	  55
  43	  57
  43	  61
  43	  63
  43	  65
  43	  66
  43	  68
  43	  71
  43	  72
  43	  73
  43	  75
  43	  78
  43	  82
  43	  83
  43	  84
  43	  89
  43	  91
  43	  93
  43	  99
  43	 100
  43	 104
  43	 105
  43	 106
  43	 108
  43	 109
  43	 110
  43	 111
  43	 112
  43	 114
  43	 119
  44	  50
  44	  51
  44	  55
  44	  57
  44	  58
  44	  62
  44	  64
  44	  66
  44	  69
  44	  70
  44	  76
  44	  77
  44	  79
  44	  81
  44	  86
  44	  88
  44	  89
  44	  90
  44	  92
  44	  93
  44	  94
  44	  96
  44	  97
  44	 102
  44	 107
  44	 108
  44	 112
  44	 113
  44	 114
  44	 115
  44	 119
  45	  46
  45	  49
  45	  50
  45	  53
  45	  54
  45	  55
  45	  56
  45	  57
  45	  59
  45	  61
  45	  62
  45	  63
  45	  64
  45	  69
  45	  76
  45	  77
  45	  81
  45	  82
  45	  83
  45	  84
  45	  86
  45	  87
  45	  89
  45	  90
  45	  91
  45	  96
  45	  98
  45	  99
  45	 102
  45	 103
  45	 105
  45	 109
  45	 110
  45	 111
  45	 114
  45	 118
  45	 119
  46	  48
  46	  49
  46	  51
  46	  53
  46	  55
  46	  56
  46	  57
  46	  58
  46	  60
  46	  65
  46	  70
  46	  71
  46	  72
  46	  74
  46	  75
  46	  76
  46	  77
  46	  78
  46	  79
  46	  80
  46	  81
  46	  82
  46	  84
  46	  85
  46	  87
  46	  88
  46	  89
  46	  91
  46	  93
  46	  94
  46	  96
  46	  98
  46	  99
  46	 100
  46	 101
  46	 102
  46	 104
  46	 105
  46	 108
  46	 109
  46	 111
  46	 113
  46	 114
  47	  50
  47	  51
  47	  58
  47	  60
  47	  61
  47	  62
  47	  63
  47	  68
  47	  72
  47	  73
  47	  74
  47	  77
  47	  79
  47	  80
  47	  81
  47	  85
  47	  86
  47	  87
  47	  88
  47	  91
  47	  93
  47	  94
  47	  95
  47	  98
  47	 101
  47	 102
  47	 103
  47	 104
  47	 106
  47	 108
  47	 109
  47	 111
  47	 112
  47	 115
  47	 116
  47	 118
  48	  49
  48	  50
  48	  51
  48	  55
  48	  58
  48	  62
  48	  63
  48	  67
  48	  71
  48	  74
  48	  77
  48	  78
  48	  79
  48	  80
  48	  81
  48	  84
  48	  86
  48	  87
  48	  89
  48	  90
  48	  91
  48	  92
  48	  93
  48	  95
  48	  96
  48	 100
  48	 101
  48	 104
  48	 106
  48	 107
  48	 111
  48	 112
  48	 116
  48	 118
  48	 119
  49	  50
  49	  51
  49	  53
  49	  56
  49	  59
  49	  61
  49	  63
  49	  64
  49	  65
  49	  68
  49	  69
  49	  70
  49	  72
  49	  74
  49	  75
  49	  77
  49	  79
  49	  80
  49	  81
  49	  83
  49	  86
  49	  89
  49	  90
  49	  92
  49	  93
  49	  94
  49	  95
  49	  99
  49	 105
  49	 107
  49	 108
  49	 109
  49	 110
  49	 112
  49	 115
  49	 116
  49	 119
  50	  51
  50	  56
  50	  58
  50	  61
  50	  63
  50	  65
  50	  69
  50	  70
  50	  72
  50	  74
  50	  75
  50	  77
  50	  78
  50	  80
  50	  81
  50	  84
  50	  87
  50	  90
  50	  91
  50	  95
  50	  96
  50	  97
  50	  99
  50	 100
  50	 101
  50	 102
  50	 103
  50	 106
  50	 108
  50	 111
  50	 112
  50	 113
  50	 114
  50	 116
  50	 118
  50	 119
  51	  52
  51	  55
  51	  60
  51	  63
  51	  68
  51	  69
  51	  70
  51	  71
  51	  72
  51	  74
  51	  75
  51	  76
  51	  79
  51	  82
  51	  83
  51	  84
  51	  85
  51	  87
  51	  88
  51	  89
  51	  90
  51	  91
  51	  93
  51	  97
  51	  98
  51	 101
  51	 102
  51	 105
  51	 106
  51	 107
  51	 110
  51	 117
  51	 118
  51	 119
  52	  53
  52	  54
  52	  57
  52	  58
  52	  62
  52	  63
  52	  64
  52	  68
  52	  71
  52	  72
  52	  73
  52	  74
  52	  76
  52	  79
  52	  80
  52	  81
  52	  84
  52	  86
  52	  88
  52	 100
  52	 102
  52	 105
  52	 107
  52	 108
  52	 110
  52	 111
  52	 112
  52	 113
  52	 114
  52	 115
  52	 116
  52	 117
  52	 118
  53	  54
  53	  55
  53	  56
  53	  57
  53	  60
  53	  62
  53	  63
  53	  64
  53	  65
  53	  66
  53	  71
  53	  74
  53	  77
  53	  78
  53	  79
  53	  80
  53	  82
  53	  83
  53	  84
  53	  86
  53	  88
  53	  89
  53	  93
  53	  94
  53	  95
  53	  97
  53	 102
  53	 104
  53	 105
  53	 111
  53	 113
  53	 115
  54	  56
  54	  57
  54	  58
  54	  61
  54	  62
  54	  63
  54	  68
  54	  72
  54	  73
  54	  74
  54	  75
  54	  76
  54	  80
  54	  81
  54	  84
  54	  85
  54	  87
  54	  88
  54	  90
  54	  93
  54	  94
  54	  96
  54	 104
  54	 105
  54	 107
  54	 109
  54	 110
  54	 115
  54	 117
  55	  59
  55	  61
  55	  62
  55	  63
  55	  64
  55	  65
  55	  66
  55	  68
  55	  69
  55	  72
  55	  74
  55	  78
  55	  83
  55	  86
  55	  92
  55	  93
  55	  96
  55	  99
  55	 100
  55	 101
  55	 103
  55	 105
  55	 108
  55	 110
  55	 111
  55	 114
  55	 116
  56	  57
  56	  59
  56	  61
  56	  63
  56	  64
  56	  65
  56	  66
  56	  67
  56	  68
  56	  70
  56	  74
  56	  75
  56	  77
  56	  79
  56	  82
  56	  85
  56	  91
  56	  92
  56	  93
  56	  94
  56	  95
  56	  97
  56	  98
  56	  99
  56	 102
  56	 103
  56	 107
  56	 111
  56	 114
  56	 119
  57	  58
  57	  60
  57	  63
  57	  65
  57	  66
  57	  69
  57	  70
  57	  71
  57	  72
  57	  77
  57	  79
  57	  80
  57	  82
  57	  83
  57	  84
  57	  85
  57	  87
  57	  92
  57	  99
  57	 101
  57	 103
  57	 108
  57	 110
  57	 112
  57	 113
  57	 116
  58	  60
  58	  63
  58	  64
  58	  66
  58	  69
  58	  70
  58	  71
  58	  72
  58	  74
  58	  76
  58	  79
  58	  80
  58	  81
  58	  85
  58	  87
  58	  89
  58	  92
  58	  98
  58	  99
  58	 100
  58	 107
  58	 108
  58	 109
  58	 110
  58	 112
  58	 113
  58	 115
  58	 118
  58	 119
  59	  61
  59	  62
  59	  63
  59	  64
  59	  68
  59	  69
  59	  72
  59	  75
  59	  76
  59	  78
  59	  85
  59	  87
  59	  88
  59	  90
  59	  92
  59	  95
  59	  96
  59	  98
  59	 100
  59	 103
  59	 104
  59	 108
  59	 111
  59	 112
  59	 114
  59	 116
  59	 117
  59	 118
  59	 119
  60	  61
  60	  62
  60	  65
  60	  66
  60	  72
  60	  77
  60	  79
  60	  80
  60	  83
  60	  85
  60	  90
  60	  92
  60	  93
  60	  94
  60	  96
  60	  98
  60	 102
  60	 103
  60	 106
  60	 107
  60	 108
  60	 110
  60	 114
  60	 115
  60	 117
  60	 118
  61	  62
  61	  63
  61	  66
  61	  71
  61	  73
  61	  75
  61	  77
  61	  78
  61	  79
  61	  80
  61	  81
  61	  82
  61	  83
  61	  84
  61	  86
  61	  88
  61	  89
  61	  90
  61	  91
  61	  97
  61	  99
  61	 100
  61	 105
  61	 106
  61	 107
  61	 109
  61	 110
  61	 111
  61	 112
  61	 113
  61	 114
  61	 115
  61	 118
  61	 119
  62	  63
  62	  65
  62	  67
  62	  68
  62	  70
  62	  71
  62	  72
  62	  73
  62	  78
  62	  79
  62	  80
  62	  85
  62	  89
  62	  91
  62	  92
  62	  93
  62	  95
  62	  97
  62	 100
  62	 102
  62	 104
  62	 105
  62	 106
  62	 108
  62	 112
  62	 113
  62	 115
  62	 117
  62	 118
  62	 119
  63	  64
  63	  67
  63	  69
  63	  70
  63	  71
  63	  72
  63	  74
  63	  76
  63	  80
  63	  81
  63	  89
  63	  92
  63	  94
  63	  97
  63	  98
  63	  99
  63	 101
  63	 102
  63	 104
  63	 105
  63	 107
  63	 109
  63	 111
  63	 112
  63	 115
  63	 117
  64	  66
  64	  68
  64	  70
  64	  71
  64	  73
  64	  74
  64	  79
  64	  80
  64	  81
  64	  82
  64	  83
  64	  88
  64	  89
  64	  93
  64	  95
  64	  97
  64	  98
  64	 101
  64	 102
  64	 106
  64	 109
  64	 111
  64	 113
  64	 115
  64	 116
  64	 119
  65	  68
  65	  72
  65	  75
  65	  76
  65	  77
  65	  78
  65	  79
  65	  81
  65	  82
  65	  84
  65	  86
  65	  87
  65	  89
  65	  90
  65	  92
  65	  96
  65	  97
  65	  98
  65	  99
  65	 102
  65	 103
  65	 104
  65	 105
  65	 109
  65	 113
  65	 116
  65	 117
  65	 119
  66	  67
  66	  68
  66	  69
  66	  70
  66	  71
  66	  72
  66	  76
  66	  77
  66	  78
  66	  79
  66	  82
  66	  83
  66	  84
  66	  87
  66	  88
  66	  89
  66	  90
  66	  92
  66	  96
  66	  97
  66	  98
  66	 104
  66	 106
  66	 109
  66	 110
  66	 113
  66	 116
  66	 118
  66	 119
  67	  71
  67	  72
  67	  73
  67	  75
  67	  78
  67	  80
  67	  81
  67	  82
  67	  84
  67	  85
  67	  90
  67	  92
  67	  95
  67	  96
  67	  97
  67	 101
  67	 102
  67	 103
  67	 105
  67	 106
  67	 107
  67	 108
  67	 110
  67	 112
  67	 114
  67	 117
  68	  69
  68	  70
  68	  72
  68	  73
  68	  74
  68	  76
  68	  78
  68	  82
  68	  83
  68	  84
  68	  85
  68	  90
  68	  91
  68	  92
  68	  98
  68	  99
  68	 100
  68	 102
  68	 103
  68	 104
  68	 107
  68	 109
  68	 112
  68	 114
  68	 116
  68	 119
  69	  71
  69	  72
  69	  76
  69	  77
  69	  78
  69	  83
  69	  87
  69	  88
  69	  89
  69	  96
  69	  97
  69	  98
  69	 104
  69	 106
  69	 107
  69	 110
  69	 113
  69	 114
  69	 115
  69	 116
  69	 117
  69	 118
  69	 119
  70	  71
  70	  74
  70	  76
  70	  77
  70	  80
  70	  81
  70	  83
  70	  85
  70	  86
  70	  87
  70	  88
  70	  89
  70	  92
  70	  93
  70	  94
  70	  95
  70	  97
  70	 101
  70	 102
  70	 106
  70	 109
  70	 110
  70	 111
  70	 112
  70	 113
  70	 116
  70	 117
  70	 119
  71	  72
  71	  74
  71	  76
  71	  77
  71	  79
  71	  80
  71	  82
  71	  83
  71	  84
  71	  86
  71	  91
  71	  92
  71	  93
  71	  95
  71	  96
  71	  97
  71	 100
  71	 102
  71	 104
  71	 106
  71	 107
  71	 110
  71	 111
  71	 114
  71	 115
  71	 117
  72	  73
  72	  76
  72	  77
  72	  79
  72	  80
  72	  81
  72	  84
  72	  85
  72	  86
  72	  88
  72	  92
  72	  93
  72	  94
  72	  95
  72	  97
  72	 101
  72	 103
  72	 104
  72	 107
  72	 108
  72	 112
  72	 113
  72	 114
  72	 115
  72	 116
  72	 119
  73	  74
  73	  76
  73	  77
  73	  79
  73	  80
  73	  82
  73	  83
  73	  85
  73	  90
  73	  91
  73	  96
  73	  97
  73	  99
  73	 100
  73	 102
  73	 107
  73	 109
  73	 110
  73	 111
  73	 112
  73	 115
  73	 116
  73	 117
  74	  75
  74	  78
  74	  80
  74	  85
  74	  86
  74	  88
  74	  90
  74	  92
  74	  93
  74	  94
  74	  95
  74	  97
  74	 100
  74	 104
  74	 106
  74	 109
  74	 115
  74	 117
  74	 119
  75	  76
  75	  77
  75	  79
  75	  81
  75	  82
  75	  85
  75	  86
  75	  88
  75	  93
  75	  94
  75	  97
  75	  99
  75	 100
  75	 103
  75	 104
  75	 105
  75	 107
  75	 108
  75	 109
  75	 110
  75	 112
  75	 114
  75	 115
  75	 116
  75	 117
  75	 118
  75	 119
  76	  77
  76	  79
  76	  83
  76	  91
  76	  93
  76	  96
  76	  97
  76	  98
  76	  99
  76	 100
  76	 102
  76	 104
  76	 117
  77	  80
  77	  81
  77	  82
  77	  85
  77	  88
  77	  92
  77	  94
  77	  95
  77	  96
  77	  98
  77	  99
  77	 100
  77	 102
  77	 104
  77	 105
  77	 107
  77	 108
  77	 110
  77	 113
  77	 114
  77	 117
  77	 118
  77	 119
  78	  81
  78	  82
  78	  85
  78	  89
  78	  93
  78	  94
  78	  96
  78	 101
  78	 103
  78	 104
  78	 107
  78	 111
  78	 112
  78	 113
  78	 114
  78	 115
  78	 116
  79	  80
  79	  81
  79	  83
  79	  84
  79	  85
  79	  86
  79	  88
  79	  90
  79	  95
  79	  96
  79	  97
  79	  98
  79	 100
  79	 101
  79	 102
  79	 105
  79	 106
  79	 107
  79	 108
  79	 110
  79	 111
  79	 112
  79	 113
  79	 114
  79	 116
  80	  81
  80	  82
  80	  83
  80	  84
  80	  85
  80	  86
  80	  88
  80	  89
  80	  90
  80	  91
  80	  96
  80	  97
  80	  98
  80	  99
  80	 104
  80	 105
  80	 106
  80	 107
  80	 108
  80	 109
  80	 111
  80	 112
  80	 114
  80	 118
  81	  82
  81	  83
  81	  84
  81	  87
  81	  89
  81	  90
  81	  91
  81	  92
  81	  94
  81	  96
  81	  98
  81	  99
  81	 101
  81	 103
  81	 104
  81	 107
  81	 109
  81	 112
  81	 114
  81	 116
  81	 117
  82	  88
  82	  92
  82	  93
  82	  94
  82	  97
  82	  98
  82	 100
  82	 102
  82	 103
  82	 104
  82	 105
  82	 107
  82	 110
  82	 111
  82	 114
  82	 115
  82	 116
  82	 118
  82	 119
  83	  84
  83	  85
  83	  87
  83	  88
  83	  90
  83	  93
  83	  98
  83	 102
  83	 104
  83	 105
  83	 107
  83	 112
  83	 115
  84	  89
  84	  90
  84	  91
  84	  94
  84	  96
  84	  97
  84	  99
  84	 100
  84	 102
  84	 105
  84	 106
  84	 107
  84	 108
  84	 111
  84	 114
  84	 116
  84	 119
  85	  88
  85	  89
  85	  90
  85	  91
  85	  96
  85	 101
  85	 103
  85	 104
  85	 105
  85	 106
  85	 108
  85	 109
  85	 110
  85	 111
  85	 112
  85	 118
  86	  89
  86	  90
  86	  91
  86	  92
  86	  93
  86	  96
  86	  97
  86	  99
  86	 101
  86	 104
  86	 107
  86	 109
  86	 110
  86	 111
  86	 112
  86	 113
  86	 114
  86	 116
  86	 117
  86	 119
  87	  91
  87	  93
  87	  94
  87	  95
  87	  96
  87	  98
  87	  99
  87	 100
  87	 103
  87	 104
  87	 105
  87	 107
  87	 108
  87	 109
  87	 110
  87	 111
  87	 112
  87	 113
  87	 115
  87	 119
  88	  90
  88	  92
  88	  98
  88	  99
  88	 101
  88	 103
  88	 104
  88	 106
  88	 108
  88	 109
  88	 110
  88	 111
  88	 112
  88	 113
  88	 114
  88	 116
  89	  92
  89	  93
  89	  95
  89	  96
  89	  97
  89	  98
  89	 101
  89	 102
  89	 104
  89	 106
  89	 111
  89	 113
  89	 116
  90	  91
  90	  93
  90	  96
  90	  97
  90	  98
  90	 101
  90	 103
  90	 105
  90	 111
  90	 113
  90	 114
  90	 119
  91	  92
  91	  93
  91	  94
  91	  96
  91	  97
  91	  98
  91	  99
  91	 101
  91	 103
  91	 105
  91	 107
  91	 108
  91	 111
  91	 113
  91	 117
  92	  93
  92	  95
  92	  96
  92	  97
  92	  98
  92	  99
  92	 101
  92	 103
  92	 104
  92	 105
  92	 108
  92	 109
  92	 114
  92	 115
  92	 118
  92	 119
  93	  94
  93	  95
  93	  96
  93	  97
  93	 101
  93	 103
  93	 106
  93	 107
  93	 110
  93	 112
  93	 118
  93	 119
  94	  96
  94	  99
  94	 101
  94	 102
  94	 104
  94	 107
  94	 109
  94	 110
  94	 111
  94	 113
  94	 115
  94	 118
  95	  96
  95	  97
  95	  98
  95	 100
  95	 102
  95	 103
  95	 105
  95	 106
  95	 109
  95	 111
  95	 115
  95	 116
  95	 119
  96	  99
  96	 100
  96	 101
  96	 102
  96	 104
  96	 107
  96	 108
  96	 110
  96	 118
  96	 119
  97	  99
  97	 101
  97	 102
  97	 105
  97	 106
  97	 108
  97	 109
  97	 111
  97	 112
  97	 113
  97	 114
  97	 115
  97	 116
  97	 118
  98	 100
  98	 101
  98	 103
  98	 104
  98	 105
  98	 106
  98	 108
  98	 110
  98	 114
  98	 116
  98	 117
  98	 119
  99	 105
  99	 110
  99	 111
  99	 114
  99	 115
 100	 101
 100	 102
 100	 103
 100	 104
 100	 106
 100	 107
 100	 111
 100	 112
 100	 113
 100	 114
 100	 116
 100	 117
 100	 119
 101	 104
 101	 107
 101	 109
 101	 113
 101	 114
 101	 115
 101	 116
 101	 117
 101	 118
 102	 104
 102	 109
 102	 111
 102	 114
 102	 115
 102	 117
 102	 118
 103	 104
 103	 106
 103	 107
 103	 108
 103	 111
 103	 112
 103	 113
 103	 118
 104	 105
 104	 106
 104	 107
 104	 108
 104	 111
 104	 113
 104	 116
 104	 117
 104	 119
 105	 112
 105	 114
 105	 116
 105	 118
 106	 108
 106	 110
 106	 111
 106	 113
 106	 114
 106	 115
 106	 116
 107	 109
 107	 112
 107	 113
 107	 119
 108	 111
 108	 113
 108	 114
 108	 116
 108	 118
 108	 119
 109	 112
 109	 114
 109	 116
 109	 117
 109	 118
 109	 119
 110	 111
 110	 117
 111	 112
 111	 113
 111	 116
 111	 118
 111	 119
 112	 113
 112	 114
 112	 115
 112	 116
 112	 118
 113	 114
 113	 115
 113	 117
 113	 118
 114	 116
 114	 117
 115	 117
 115	 118
 116	 117
 118	 119
;
